benchmarks_vrp/CMT3/tsp_classic/CMT3_5.vrp
NAME: CMT3_5
TYPE: CVRP
COMMENT: 826.14 - Cluster Nr.5
DIMENSION: 12
CAPACITY: 200
EDGE_WEIGHT_TYPE: EUC_2D
NODE_COORD_TYPE: TWOD_COORDS
NODE_COORD_SECTION: 
5 37 31
6 50 35
10 53 43
11 56 39
7 47 47
1 45 30
2 49 42
12 57 48
4 55 45
8 35 35
9 41 37
3 56 37
DEPOT_SECTION: 
8
-1
DEMAND_SECTION: 
12 23
3 6
1 17
11 36
9 16
5 14
4 13
8 0
10 14
6 19
2 13
7 13
EOF
