benchmarks_vrp/CMT3/tsp_classic/CMT3_5.tour
NAME: CMT3_5 solution
TYPE: TOUR
TOUR_SECTION:
8 5 1 6 3 11 10 4 12 7 2 9 -1
-1
EOF